
(set-logic ALL) 

(declare-datatype MyList ((Nil) (Cons (head Real) (tail MyList)) )) 
(declare-fun l0 () MyList) 
(declare-fun l1 () MyList) 
(declare-fun l2 () MyList) 
(declare-fun l3 () MyList) 
(declare-fun i0 () Real) 
(declare-fun i1 () Real) 
(assert (is-Cons Nil) )
(assert (and (is-Nil l0) (= l0 l3) (is-Cons l1) (= l2 Nil)) )
(assert (not (= l2 Nil)) )
(assert (is-Nil l0) )
(assert (and (= l0 l3) (= l2 Nil)) )
(assert (or (= l2 Nil) (= l1 Nil) (= l2 Nil) (= l3 Nil)) )
(assert (is-Cons Nil) )
(assert (is-Nil l3) )
(check-sat)
